 ! ----------------------------------------------------------------------------
 ! Maximization problem - 38 variables, 2 constraints
 ! Initial process time : 0.00s (0.00s extraction + 0.00s propagation)
 !  . Log search space  : 50.5 (before), 50.5 (after)
 !  . Memory usage      : 377.2 kB (before), 377.2 kB (after)
 ! Using parallel search with 4 workers.
 ! ----------------------------------------------------------------------------
 !          Best Branches  Non-fixed    W       Branch decision
                        0         38                 -
 + New bound is 0.0000000000144000
 *  1.000000e-13       10  0.00s        1      (gap is 14.30%)
 ! ----------------------------------------------------------------------------
 ! Search completed, 1 solution found.
 ! Best objective         : 1e-13 (optimal - effective tol. is 1.000000e-09)
 ! Best bound             : 0.0000000000144000
 ! Number of branches     : 10
 ! Number of fails        : 6
 ! Total memory usage     : 1.2 MB (1.1 MB CP Optimizer + 0.0 MB Concert)
 ! Time spent in solve    : 0.00s (0.00s engine + 0.00s extraction)
 ! Search speed (br. / s) : 1000.0
 ! ----------------------------------------------------------------------------

